\Problem name: 

Minimize
OBJROW: C
Subject To
ord(0,1):  x(0,0) - x(0,2) >= 2
ord(0,2):  - x(0,0) + x(0,1) >= 4
ord(1,1):  - x(1,1) + x(1,2) >= 3
ord(1,2):  x(1,0) - x(1,2) >= 6
ord(2,1):  x(2,1) - x(2,2) >= 1
ord(2,2):  x(2,0) - x(2,1) >= 5
phi(0,1,0):  x(0,0) - x(1,0) + 42 y(0,1,0) >= 8
psy(0,1,0):  - x(0,0) + x(1,0) -42 y(0,1,0) >= -38
phi(0,1,1):  x(0,1) - x(1,1) + 42 y(0,1,1) >= 3
psy(0,1,1):  - x(0,1) + x(1,1) -42 y(0,1,1) >= -36
phi(0,1,2):  x(0,2) - x(1,2) + 42 y(0,1,2) >= 6
psy(0,1,2):  - x(0,2) + x(1,2) -42 y(0,1,2) >= -40
phi(0,2,0):  x(0,0) - x(2,0) + 42 y(0,2,0) >= 7
psy(0,2,0):  - x(0,0) + x(2,0) -42 y(0,2,0) >= -38
phi(0,2,1):  x(0,1) - x(2,1) + 42 y(0,2,1) >= 5
psy(0,2,1):  - x(0,1) + x(2,1) -42 y(0,2,1) >= -36
phi(0,2,2):  x(0,2) - x(2,2) + 42 y(0,2,2) >= 1
psy(0,2,2):  - x(0,2) + x(2,2) -42 y(0,2,2) >= -40
phi(1,0,0):  - x(0,0) + x(1,0) + 42 y(1,0,0) >= 4
psy(1,0,0):  x(0,0) - x(1,0) -42 y(1,0,0) >= -34
phi(1,0,1):  - x(0,1) + x(1,1) + 42 y(1,0,1) >= 6
psy(1,0,1):  x(0,1) - x(1,1) -42 y(1,0,1) >= -39
phi(1,0,2):  - x(0,2) + x(1,2) + 42 y(1,0,2) >= 2
psy(1,0,2):  x(0,2) - x(1,2) -42 y(1,0,2) >= -36
phi(1,2,0):  x(1,0) - x(2,0) + 42 y(1,2,0) >= 7
psy(1,2,0):  - x(1,0) + x(2,0) -42 y(1,2,0) >= -34
phi(1,2,1):  x(1,1) - x(2,1) + 42 y(1,2,1) >= 5
psy(1,2,1):  - x(1,1) + x(2,1) -42 y(1,2,1) >= -39
phi(1,2,2):  x(1,2) - x(2,2) + 42 y(1,2,2) >= 1
psy(1,2,2):  - x(1,2) + x(2,2) -42 y(1,2,2) >= -36
phi(2,0,0):  - x(0,0) + x(2,0) + 42 y(2,0,0) >= 4
psy(2,0,0):  x(0,0) - x(2,0) -42 y(2,0,0) >= -35
phi(2,0,1):  - x(0,1) + x(2,1) + 42 y(2,0,1) >= 6
psy(2,0,1):  x(0,1) - x(2,1) -42 y(2,0,1) >= -37
phi(2,0,2):  - x(0,2) + x(2,2) + 42 y(2,0,2) >= 2
psy(2,0,2):  x(0,2) - x(2,2) -42 y(2,0,2) >= -41
phi(2,1,0):  - x(1,0) + x(2,0) + 42 y(2,1,0) >= 8
psy(2,1,0):  x(1,0) - x(2,0) -42 y(2,1,0) >= -35
phi(2,1,1):  - x(1,1) + x(2,1) + 42 y(2,1,1) >= 3
psy(2,1,1):  x(1,1) - x(2,1) -42 y(2,1,1) >= -37
phi(2,1,2):  - x(1,2) + x(2,2) + 42 y(2,1,2) >= 6
psy(2,1,2):  x(1,2) - x(2,2) -42 y(2,1,2) >= -41
makespan(0):  C - x(0,1) >= 6
makespan(1):  C - x(1,0) >= 8
makespan(2):  C - x(2,0) >= 7
Bounds
 0 <= y(0,0,0) <= 1
 0 <= y(0,0,1) <= 1
 0 <= y(0,0,2) <= 1
 0 <= y(0,1,0) <= 1
 0 <= y(0,1,1) <= 1
 0 <= y(0,1,2) <= 1
 0 <= y(0,2,0) <= 1
 0 <= y(0,2,1) <= 1
 0 <= y(0,2,2) <= 1
 0 <= y(1,0,0) <= 1
 0 <= y(1,0,1) <= 1
 0 <= y(1,0,2) <= 1
 0 <= y(1,1,0) <= 1
 0 <= y(1,1,1) <= 1
 0 <= y(1,1,2) <= 1
 0 <= y(1,2,0) <= 1
 0 <= y(1,2,1) <= 1
 0 <= y(1,2,2) <= 1
 0 <= y(2,0,0) <= 1
 0 <= y(2,0,1) <= 1
 0 <= y(2,0,2) <= 1
 0 <= y(2,1,0) <= 1
 0 <= y(2,1,1) <= 1
 0 <= y(2,1,2) <= 1
 0 <= y(2,2,0) <= 1
 0 <= y(2,2,1) <= 1
 0 <= y(2,2,2) <= 1
End
